WARNING: using JuMP.getdual in module Main conflicts with an existing identifier.
  [nonlinear] <nonlin>: ((2.000000 * <_var0_>) + ((-1.000000) * <_var1_>) + ((-1.000000) * <_var2_>) + ((-9.000000) * <_var3_>) + (3.000000 * <_var4_>) + (5.000000 * <_var5_>) + (1.000000 * <_var8_>) + (7.000000 * <_var9_>) + ((-7.000000) * <_var10_>) + ((-4.000000) * <_var11_>) + ((-6.000000) * <_var12_>) + ((-3.000000) * <_var13_>) + (7.000000 * <_var14_>) + ((-5.000000) * <_var16_>) + (1.000000 * <_var17_>) + (1.000000 * <_var18_>)) <= -0;
violation: right hand side is violated by 1.04293 (scaled: 1.04293)
all 1 solutions given by solution candidate storage are infeasible

presolving:
(round 1, fast)       0 del vars, 0 del conss, 0 add conss, 0 chg bounds, 0 chg sides, 0 chg coeffs, 10001 upgd conss, 0 impls, 0 clqs
(round 2, fast)       0 del vars, 0 del conss, 0 add conss, 15006 chg bounds, 0 chg sides, 0 chg coeffs, 10001 upgd conss, 0 impls, 0 clqs
presolving (3 rounds: 3 fast, 1 medium, 1 exhaustive):
 0 deleted vars, 0 deleted constraints, 0 added constraints, 15006 tightened bounds, 0 added holes, 0 changed sides, 0 changed coefficients
 0 implications, 0 cliques
presolved problem has 15006 variables (0 bin, 0 int, 0 impl, 15006 cont) and 10001 constraints
  10000 constraints of type <linear>
      1 constraints of type <quadratic>
Presolving Time: 227.07

  node  | left  |LP iter|LP it/n| mem |  dualbound   | primalbound  |  gap   
      1 |     0 |  7009 |     - | 112M|-1.370136e+07 |      --      |    Inf 

******************************************************************************
This program contains Ipopt, a library for large-scale nonlinear optimization.
 Ipopt is released as open source code under the Eclipse Public License (EPL).
         For more information visit http://projects.coin-or.org/Ipopt
******************************************************************************

q     1 |     0 |  7009 |     - | 112M|-1.370136e+07 |-4.129882e+06 | 231.76%
y     1 |     0 |  7009 |     - | 112M|-1.370136e+07 |-4.129883e+06 | 231.76%
      1 |     0 |  7009 |     - | 112M|-1.370136e+07 |-4.129883e+06 | 231.76%
      1 |     0 |  7009 |     - | 112M|-1.370136e+07 |-4.129883e+06 | 231.76%
      1 |     0 | 77099 |     - | 112M|-1.370136e+07 |-4.129883e+06 | 231.76%
      1 |     0 | 77126 |     - | 113M|-1.369717e+07 |-4.129883e+06 | 231.66%
      1 |     2 | 77126 |     - | 113M|-1.369717e+07 |-4.129883e+06 | 231.66%
    100 |   101 | 77890 | 715.7 | 181M|-1.369367e+07 |-4.129883e+06 | 231.58%
    200 |   201 | 78617 | 359.7 | 247M|-1.369154e+07 |-4.129883e+06 | 231.52%
    300 |   301 | 79312 | 241.7 | 316M|-1.369030e+07 |-4.129883e+06 | 231.49%
    400 |   401 | 79951 | 182.7 | 396M|-1.368994e+07 |-4.129883e+06 | 231.49%
    500 |   501 | 80608 | 147.4 | 463M|-1.368959e+07 |-4.129883e+06 | 231.48%
    600 |   601 | 81261 | 123.9 | 534M|-1.368924e+07 |-4.129883e+06 | 231.47%
    700 |   701 | 81919 | 107.1 | 612M|-1.368906e+07 |-4.129883e+06 | 231.46%
  node  | left  |LP iter|LP it/n| mem |  dualbound   | primalbound  |  gap   
    800 |   801 | 82572 |  94.5 | 699M|-1.368887e+07 |-4.129883e+06 | 231.46%
    900 |   901 | 83215 |  84.7 | 736M|-1.368871e+07 |-4.129883e+06 | 231.46%
   1000 |  1001 | 83867 |  76.9 | 832M|-1.368852e+07 |-4.129883e+06 | 231.45%
   1100 |  1101 | 84527 |  70.5 | 869M|-1.368835e+07 |-4.129883e+06 | 231.45%
   1200 |  1201 | 85166 |  65.2 | 978M|-1.368817e+07 |-4.129883e+06 | 231.44%
   1300 |  1301 | 85825 |  60.7 |1015M|-1.368815e+07 |-4.129883e+06 | 231.44%
   1400 |  1401 | 86492 |  56.8 |1137M|-1.368786e+07 |-4.129883e+06 | 231.43%
   1500 |  1501 | 87126 |  53.4 |1174M|-1.368780e+07 |-4.129883e+06 | 231.43%
   1600 |  1601 | 87776 |  50.5 |1211M|-1.368780e+07 |-4.129883e+06 | 231.43%
   1700 |  1701 | 88444 |  47.9 |1350M|-1.368751e+07 |-4.129883e+06 | 231.43%
   1800 |  1801 | 89070 |  45.6 |1388M|-1.368745e+07 |-4.129883e+06 | 231.42%
   1900 |  1901 | 89724 |  43.5 |1425M|-1.368744e+07 |-4.129883e+06 | 231.42%
   2000 |  2001 | 90396 |  41.7 |1462M|-1.368715e+07 |-4.129883e+06 | 231.42%
   2100 |  2101 | 91027 |  40.0 |1621M|-1.368715e+07 |-4.129883e+06 | 231.42%
   2200 |  2201 | 91670 |  38.5 |1658M|-1.368709e+07 |-4.129883e+06 | 231.42%
  node  | left  |LP iter|LP it/n| mem |  dualbound   | primalbound  |  gap   
   2300 |  2301 | 92325 |  37.1 |1696M|-1.368708e+07 |-4.129883e+06 | 231.42%
   2400 |  2401 | 92993 |  35.8 |1733M|-1.368679e+07 |-4.129883e+06 | 231.41%
   2500 |  2501 | 93632 |  34.7 |1917M|-1.368679e+07 |-4.129883e+06 | 231.41%
   2600 |  2601 | 94281 |  33.6 |1954M|-1.368673e+07 |-4.129883e+06 | 231.41%
   2700 |  2701 | 94933 |  32.6 |1991M|-1.368673e+07 |-4.129883e+06 | 231.41%
   2800 |  2801 | 95590 |  31.6 |2029M|-1.368644e+07 |-4.129883e+06 | 231.40%
   2900 |  2901 | 96223 |  30.8 |2066M|-1.368644e+07 |-4.129883e+06 | 231.40%
   3000 |  3001 | 96874 |  30.0 |2280M|-1.368643e+07 |-4.129883e+06 | 231.40%
   3100 |  3101 | 97525 |  29.2 |2317M|-1.368637e+07 |-4.129883e+06 | 231.40%
   3200 |  3201 | 98173 |  28.5 |2354M|-1.368637e+07 |-4.129883e+06 | 231.40%
   3300 |  3301 | 98818 |  27.8 |2391M|-1.368609e+07 |-4.129883e+06 | 231.39%
   3400 |  3401 | 99461 |  27.2 |2428M|-1.368608e+07 |-4.129883e+06 | 231.39%
   3500 |  3501 |100114 |  26.6 |2663M|-1.368607e+07 |-4.129883e+06 | 231.39%
   3600 |  3601 |100768 |  26.0 |2714M|-1.368602e+07 |-4.129883e+06 | 231.39%
   3700 |  3701 |101421 |  25.5 |2751M|-1.368601e+07 |-4.129883e+06 | 231.39%
  node  | left  |LP iter|LP it/n| mem |  dualbound   | primalbound  |  gap   
   3800 |  3801 |102069 |  25.0 |2788M|-1.368573e+07 |-4.129883e+06 | 231.38%
   3900 |  3901 |102710 |  24.5 |2825M|-1.368572e+07 |-4.129883e+06 | 231.38%
   4000 |  4001 |103369 |  24.1 |2862M|-1.368572e+07 |-4.129883e+06 | 231.38%
   4100 |  4101 |104008 |  23.7 |2899M|-1.368566e+07 |-4.129883e+06 | 231.38%
   4200 |  4201 |104656 |  23.2 |2936M|-1.368566e+07 |-4.129883e+06 | 231.38%
   4300 |  4301 |105307 |  22.9 |3227M|-1.368552e+07 |-4.129883e+06 | 231.38%
   4400 |  4401 |105936 |  22.5 |3264M|-1.368537e+07 |-4.129883e+06 | 231.37%
   4500 |  4501 |106591 |  22.1 |3301M|-1.368536e+07 |-4.129883e+06 | 231.37%
   4600 |  4601 |107254 |  21.8 |3339M|-1.368536e+07 |-4.129883e+06 | 231.37%
   4700 |  4701 |107888 |  21.5 |3376M|-1.368531e+07 |-4.129883e+06 | 231.37%
   4800 |  4801 |108519 |  21.1 |3413M|-1.368531e+07 |-4.129883e+06 | 231.37%
   4900 |  4901 |109157 |  20.8 |3450M|-1.368516e+07 |-4.129883e+06 | 231.37%
   5000 |  5001 |109784 |  20.6 |3487M|-1.368503e+07 |-4.129883e+06 | 231.37%
   5100 |  5101 |110402 |  20.3 |3829M|-1.368501e+07 |-4.129883e+06 | 231.37%
   5200 |  5201 |111034 |  20.0 |3866M|-1.368501e+07 |-4.129883e+06 | 231.37%
  node  | left  |LP iter|LP it/n| mem |  dualbound   | primalbound  |  gap   
   5300 |  5301 |111667 |  19.7 |3903M|-1.368500e+07 |-4.129883e+06 | 231.37%
   5400 |  5401 |112290 |  19.5 |3940M|-1.368495e+07 |-4.129883e+06 | 231.36%
   5500 |  5501 |112927 |  19.3 |3977M|-1.368494e+07 |-4.129883e+06 | 231.36%
   5600 |  5601 |113564 |  19.0 |4014M|-1.368468e+07 |-4.129883e+06 | 231.36%
   5700 |  5701 |114178 |  18.8 |4051M|-1.368467e+07 |-4.129883e+06 | 231.36%
   5800 |  5801 |114817 |  18.6 |4088M|-1.368465e+07 |-4.129883e+06 | 231.36%
   5900 |  5901 |115456 |  18.4 |4125M|-1.368465e+07 |-4.129883e+06 | 231.36%
   6000 |  6001 |116082 |  18.2 |4162M|-1.368464e+07 |-4.129883e+06 | 231.36%
   6100 |  6101 |116723 |  18.0 |4565M|-1.368460e+07 |-4.129883e+06 | 231.36%
   6200 |  6201 |117365 |  17.8 |4602M|-1.368459e+07 |-4.129883e+06 | 231.36%
   6300 |  6301 |117992 |  17.6 |4639M|-1.368446e+07 |-4.129883e+06 | 231.35%
   6400 |  6401 |118623 |  17.4 |4676M|-1.368432e+07 |-4.129883e+06 | 231.35%
   6500 |  6501 |119252 |  17.3 |4713M|-1.368431e+07 |-4.129883e+06 | 231.35%
   6600 |  6601 |119897 |  17.1 |4750M|-1.368430e+07 |-4.129883e+06 | 231.35%
   6700 |  6701 |120530 |  16.9 |4787M|-1.368429e+07 |-4.129883e+06 | 231.35%
  node  | left  |LP iter|LP it/n| mem |  dualbound   | primalbound  |  gap   
   6800 |  6801 |121177 |  16.8 |4825M|-1.368428e+07 |-4.129883e+06 | 231.35%
   6900 |  6901 |121823 |  16.6 |4862M|-1.368425e+07 |-4.129883e+06 | 231.35%
   7000 |  7001 |122455 |  16.5 |4899M|-1.368424e+07 |-4.129883e+06 | 231.35%
   7100 |  7101 |123091 |  16.3 |4936M|-1.368411e+07 |-4.129883e+06 | 231.34%
   7200 |  7201 |123716 |  16.2 |4974M|-1.368397e+07 |-4.129883e+06 | 231.34%
   7300 |  7301 |124351 |  16.1 |5450M|-1.368395e+07 |-4.129883e+06 | 231.34%
   7400 |  7401 |124985 |  15.9 |5487M|-1.368394e+07 |-4.129883e+06 | 231.34%
   7500 |  7501 |125631 |  15.8 |5524M|-1.368394e+07 |-4.129883e+06 | 231.34%
   7600 |  7601 |126266 |  15.7 |5561M|-1.368394e+07 |-4.129883e+06 | 231.34%
   7700 |  7701 |126911 |  15.6 |5598M|-1.368390e+07 |-4.129883e+06 | 231.34%
   7800 |  7801 |127541 |  15.5 |5636M|-1.368390e+07 |-4.129883e+06 | 231.34%
   7900 |  7901 |128186 |  15.3 |5673M|-1.368388e+07 |-4.129883e+06 | 231.34%
   8000 |  8001 |128807 |  15.2 |5710M|-1.368378e+07 |-4.129883e+06 | 231.34%
   8100 |  8101 |129437 |  15.1 |5747M|-1.368361e+07 |-4.129883e+06 | 231.33%
   8200 |  8201 |130056 |  15.0 |5784M|-1.368361e+07 |-4.129883e+06 | 231.33%
  node  | left  |LP iter|LP it/n| mem |  dualbound   | primalbound  |  gap   
   8300 |  8301 |130699 |  14.9 |5821M|-1.368360e+07 |-4.129883e+06 | 231.33%
   8400 |  8401 |131336 |  14.8 |5858M|-1.368359e+07 |-4.129883e+06 | 231.33%
   8500 |  8501 |131990 |  14.7 |5895M|-1.368359e+07 |-4.129883e+06 | 231.33%
   8600 |  8601 |132622 |  14.6 |5932M|-1.368358e+07 |-4.129883e+06 | 231.33%
   8700 |  8701 |133262 |  14.5 |5969M|-1.368358e+07 |-4.129883e+06 | 231.33%
   8800 |  8801 |133910 |  14.4 |6533M|-1.368355e+07 |-4.129883e+06 | 231.33%
   8900 |  8901 |134542 |  14.3 |6570M|-1.368354e+07 |-4.129883e+06 | 231.33%
   9000 |  9001 |135180 |  14.2 |6607M|-1.368343e+07 |-4.129883e+06 | 231.33%
   9100 |  9101 |135794 |  14.2 |6644M|-1.368342e+07 |-4.129883e+06 | 231.33%
   9200 |  9201 |136421 |  14.1 |6681M|-1.368340e+07 |-4.129883e+06 | 231.33%
   9300 |  9301 |137049 |  14.0 |6718M|-1.368326e+07 |-4.129883e+06 | 231.32%
   9400 |  9401 |137673 |  13.9 |6755M|-1.368325e+07 |-4.129883e+06 | 231.32%
   9500 |  9501 |138330 |  13.8 |6792M|-1.368324e+07 |-4.129883e+06 | 231.32%
   9600 |  9601 |138972 |  13.7 |6829M|-1.368323e+07 |-4.129883e+06 | 231.32%
   9700 |  9701 |139634 |  13.7 |6867M|-1.368323e+07 |-4.129883e+06 | 231.32%
  node  | left  |LP iter|LP it/n| mem |  dualbound   | primalbound  |  gap   
   9800 |  9801 |140274 |  13.6 |6904M|-1.368323e+07 |-4.129883e+06 | 231.32%
   9900 |  9901 |140921 |  13.5 |6941M|-1.368322e+07 |-4.129883e+06 | 231.32%
  10000 | 10001 |141581 |  13.5 |6978M|-1.368319e+07 |-4.129883e+06 | 231.32%
  10100 | 10101 |142221 |  13.4 |7015M|-1.368318e+07 |-4.129883e+06 | 231.32%
  10200 | 10201 |142861 |  13.3 |7052M|-1.368308e+07 |-4.129883e+06 | 231.32%
  10300 | 10301 |143481 |  13.2 |7089M|-1.368307e+07 |-4.129883e+06 | 231.32%
  10400 | 10401 |144095 |  13.2 |7126M|-1.368307e+07 |-4.129883e+06 | 231.32%
  10500 | 10501 |144723 |  13.1 |7753M|-1.368306e+07 |-4.129883e+06 | 231.32%
  10600 | 10601 |145351 |  13.0 |7832M|-1.368304e+07 |-4.129883e+06 | 231.32%
  10700 | 10701 |145980 |  13.0 |7869M|-1.368290e+07 |-4.129883e+06 | 231.31%
  10800 | 10801 |146621 |  12.9 |7906M|-1.368290e+07 |-4.129883e+06 | 231.31%
  10900 | 10901 |147259 |  12.9 |7943M|-1.368289e+07 |-4.129883e+06 | 231.31%
  11000 | 11001 |147903 |  12.8 |7981M|-1.368288e+07 |-4.129883e+06 | 231.31%
  11100 | 11101 |148567 |  12.8 |8018M|-1.368287e+07 |-4.129883e+06 | 231.31%
  11200 | 11201 |149218 |  12.7 |8055M|-1.368287e+07 |-4.129883e+06 | 231.31%
  node  | left  |LP iter|LP it/n| mem |  dualbound   | primalbound  |  gap   
  11300 | 11301 |149860 |  12.6 |8092M|-1.368287e+07 |-4.129883e+06 | 231.31%
  11400 | 11401 |150527 |  12.6 |8129M|-1.368283e+07 |-4.129883e+06 | 231.31%
  11500 | 11501 |151169 |  12.5 |8166M|-1.368283e+07 |-4.129883e+06 | 231.31%
  11600 | 11601 |151811 |  12.5 |8203M|-1.368281e+07 |-4.129883e+06 | 231.31%
  11700 | 11701 |152444 |  12.4 |8240M|-1.368272e+07 |-4.129883e+06 | 231.31%
  11800 | 11801 |153059 |  12.4 |8277M|-1.368272e+07 |-4.129883e+06 | 231.31%
  11900 | 11901 |153675 |  12.3 |8314M|-1.368271e+07 |-4.129883e+06 | 231.31%
  12000 | 12001 |154307 |  12.3 |8351M|-1.368271e+07 |-4.129883e+06 | 231.31%
  12100 | 12101 |154928 |  12.2 |8389M|-1.368271e+07 |-4.129883e+06 | 231.31%
  12200 | 12201 |155549 |  12.2 |8426M|-1.368271e+07 |-4.129883e+06 | 231.31%
  12300 | 12301 |156183 |  12.1 |8463M|-1.368255e+07 |-4.129883e+06 | 231.31%
  12400 | 12401 |156817 |  12.1 |8500M|-1.368254e+07 |-4.129883e+06 | 231.31%
  12500 | 12501 |157446 |  12.0 |8537M|-1.368254e+07 |-4.129883e+06 | 231.31%
  12600 | 12601 |158087 |  12.0 |8574M|-1.368253e+07 |-4.129883e+06 | 231.31%
  12700 | 12701 |158750 |  11.9 |9369M|-1.368252e+07 |-4.129883e+06 | 231.31%
  node  | left  |LP iter|LP it/n| mem |  dualbound   | primalbound  |  gap   
  12800 | 12801 |159392 |  11.9 |9406M|-1.368252e+07 |-4.129883e+06 | 231.31%
  12900 | 12901 |160034 |  11.9 |9443M|-1.368252e+07 |-4.129883e+06 | 231.31%
  13000 | 13001 |160676 |  11.8 |9480M|-1.368251e+07 |-4.129883e+06 | 231.31%
  13100 | 13101 |161339 |  11.8 |9518M|-1.368247e+07 |-4.129883e+06 | 231.30%
  13200 | 13201 |161981 |  11.7 |9555M|-1.368247e+07 |-4.129883e+06 | 231.30%
  13300 | 13301 |162623 |  11.7 |9592M|-1.368247e+07 |-4.129883e+06 | 231.30%
  13400 | 13401 |163266 |  11.7 |9629M|-1.368237e+07 |-4.129883e+06 | 231.30%
  13500 | 13501 |163885 |  11.6 |9666M|-1.368236e+07 |-4.129883e+06 | 231.30%
  13600 | 13601 |164500 |  11.6 |9703M|-1.368236e+07 |-4.129883e+06 | 231.30%
  13700 | 13701 |165121 |  11.5 |9740M|-1.368236e+07 |-4.129883e+06 | 231.30%
  13800 | 13801 |165748 |  11.5 |9777M|-1.368236e+07 |-4.129883e+06 | 231.30%
  13900 | 13901 |166362 |  11.5 |9815M|-1.368235e+07 |-4.129883e+06 | 231.30%
  14000 | 14001 |166991 |  11.4 |9852M|-1.368235e+07 |-4.129883e+06 | 231.30%
  14100 | 14101 |167614 |  11.4 |9889M|-1.368235e+07 |-4.129883e+06 | 231.30%
  14200 | 14201 |168259 |  11.4 |9926M|-1.368235e+07 |-4.129883e+06 | 231.30%
  node  | left  |LP iter|LP it/n| mem |  dualbound   | primalbound  |  gap   
  14300 | 14301 |168890 |  11.3 |9963M|-1.368233e+07 |-4.129883e+06 | 231.30%
  14400 | 14401 |169520 |  11.3 |  10G|-1.368219e+07 |-4.129883e+06 | 231.30%
  14500 | 14501 |170141 |  11.2 |  10G|-1.368219e+07 |-4.129883e+06 | 231.30%
  14600 | 14601 |170799 |  11.2 |  10G|-1.368218e+07 |-4.129883e+06 | 231.30%
  14700 | 14701 |171442 |  11.2 |  10G|-1.368217e+07 |-4.129883e+06 | 231.30%
  14800 | 14801 |172084 |  11.2 |  10G|-1.368217e+07 |-4.129883e+06 | 231.30%
  14900 | 14901 |172728 |  11.1 |  10G|-1.368216e+07 |-4.129883e+06 | 231.30%
  15000 | 15001 |173394 |  11.1 |  10G|-1.368216e+07 |-4.129883e+06 | 231.30%
  15100 | 15101 |174038 |  11.1 |  10G|-1.368216e+07 |-4.129883e+06 | 231.30%
  15200 | 15201 |174682 |  11.0 |  11G|-1.368212e+07 |-4.129883e+06 | 231.30%
  15300 | 15301 |175326 |  11.0 |  11G|-1.368212e+07 |-4.129883e+06 | 231.30%
  15400 | 15401 |175970 |  11.0 |  11G|-1.368211e+07 |-4.129883e+06 | 231.30%
  15500 | 15501 |176620 |  10.9 |  11G|-1.368201e+07 |-4.129883e+06 | 231.29%
  15600 | 15601 |177239 |  10.9 |  11G|-1.368201e+07 |-4.129883e+06 | 231.29%
  15700 | 15701 |177853 |  10.9 |  11G|-1.368201e+07 |-4.129883e+06 | 231.29%
  node  | left  |LP iter|LP it/n| mem |  dualbound   | primalbound  |  gap   
  15800 | 15801 |178469 |  10.9 |  11G|-1.368200e+07 |-4.129883e+06 | 231.29%
  15900 | 15901 |179098 |  10.8 |  11G|-1.368200e+07 |-4.129883e+06 | 231.29%
  16000 | 16001 |179726 |  10.8 |  11G|-1.368200e+07 |-4.129883e+06 | 231.29%
  16100 | 16101 |180347 |  10.8 |  11G|-1.368200e+07 |-4.129883e+06 | 231.29%
  16200 | 16201 |180961 |  10.7 |  11G|-1.368200e+07 |-4.129883e+06 | 231.29%
  16300 | 16301 |181573 |  10.7 |  11G|-1.368200e+07 |-4.129883e+06 | 231.29%
  16400 | 16401 |182217 |  10.7 |  11G|-1.368199e+07 |-4.129883e+06 | 231.29%
  16500 | 16501 |182846 |  10.7 |  11G|-1.368199e+07 |-4.129883e+06 | 231.29%
  16600 | 16601 |183480 |  10.6 |  11G|-1.368199e+07 |-4.129883e+06 | 231.29%
  16700 | 16701 |184111 |  10.6 |  11G|-1.368199e+07 |-4.129883e+06 | 231.29%
  16800 | 16801 |184748 |  10.6 |  11G|-1.368184e+07 |-4.129883e+06 | 231.29%
  16900 | 16901 |185380 |  10.6 |  11G|-1.368183e+07 |-4.129883e+06 | 231.29%
  17000 | 17001 |186013 |  10.5 |  11G|-1.368183e+07 |-4.129883e+06 | 231.29%
  17100 | 17101 |186656 |  10.5 |  11G|-1.368182e+07 |-4.129883e+06 | 231.29%
  17200 | 17201 |187299 |  10.5 |  11G|-1.368181e+07 |-4.129883e+06 | 231.29%
  node  | left  |LP iter|LP it/n| mem |  dualbound   | primalbound  |  gap   
  17300 | 17301 |187943 |  10.5 |  11G|-1.368181e+07 |-4.129883e+06 | 231.29%
  17400 | 17401 |188606 |  10.4 |  12G|-1.368180e+07 |-4.129883e+06 | 231.29%
  17500 | 17501 |189248 |  10.4 |  12G|-1.368180e+07 |-4.129883e+06 | 231.29%
  17600 | 17601 |189890 |  10.4 |  12G|-1.368180e+07 |-4.129883e+06 | 231.29%
  17700 | 17701 |190532 |  10.4 |  12G|-1.368176e+07 |-4.129883e+06 | 231.29%
  17800 | 17801 |191174 |  10.3 |  12G|-1.368176e+07 |-4.129883e+06 | 231.29%
  17900 | 17901 |191816 |  10.3 |  12G|-1.368176e+07 |-4.129883e+06 | 231.29%
  18000 | 18001 |192464 |  10.3 |  12G|-1.368170e+07 |-4.129883e+06 | 231.29%
  18100 | 18101 |193078 |  10.3 |  12G|-1.368165e+07 |-4.129883e+06 | 231.28%
  18200 | 18201 |193699 |  10.3 |  13G|-1.368165e+07 |-4.129883e+06 | 231.28%
  18300 | 18301 |194316 |  10.2 |  13G|-1.368165e+07 |-4.129883e+06 | 231.28%
  18400 | 18401 |194942 |  10.2 |  13G|-1.368165e+07 |-4.129883e+06 | 231.28%
  18500 | 18501 |195561 |  10.2 |  13G|-1.368165e+07 |-4.129883e+06 | 231.28%
  18600 | 18601 |196195 |  10.2 |  13G|-1.368164e+07 |-4.129883e+06 | 231.28%
  18700 | 18701 |196819 |  10.1 |  13G|-1.368164e+07 |-4.129883e+06 | 231.28%
  node  | left  |LP iter|LP it/n| mem |  dualbound   | primalbound  |  gap   
  18800 | 18801 |197448 |  10.1 |  13G|-1.368164e+07 |-4.129883e+06 | 231.28%
  18900 | 18901 |198073 |  10.1 |  13G|-1.368164e+07 |-4.129883e+06 | 231.28%
  19000 | 19001 |198687 |  10.1 |  13G|-1.368164e+07 |-4.129883e+06 | 231.28%
  19100 | 19101 |199306 |  10.1 |  13G|-1.368164e+07 |-4.129883e+06 | 231.28%
  19200 | 19201 |199945 |  10.0 |  13G|-1.368164e+07 |-4.129883e+06 | 231.28%
  19300 | 19301 |200570 |  10.0 |  13G|-1.368164e+07 |-4.129883e+06 | 231.28%
  19400 | 19401 |201202 |  10.0 |  13G|-1.368163e+07 |-4.129883e+06 | 231.28%
  19500 | 19501 |201840 |  10.0 |  13G|-1.368163e+07 |-4.129883e+06 | 231.28%
  19600 | 19601 |202476 |  10.0 |  13G|-1.368163e+07 |-4.129883e+06 | 231.28%
  19700 | 19701 |203120 |  10.0 |  13G|-1.368148e+07 |-4.129883e+06 | 231.28%
  19800 | 19801 |203748 |   9.9 |  14G|-1.368148e+07 |-4.129883e+06 | 231.28%
  19900 | 19901 |204377 |   9.9 |  14G|-1.368147e+07 |-4.129883e+06 | 231.28%
  20000 | 20001 |205019 |   9.9 |  14G|-1.368147e+07 |-4.129883e+06 | 231.28%
  20100 | 20101 |205661 |   9.9 |  14G|-1.368146e+07 |-4.129883e+06 | 231.28%
  20200 | 20201 |206302 |   9.9 |  14G|-1.368146e+07 |-4.129883e+06 | 231.28%
  node  | left  |LP iter|LP it/n| mem |  dualbound   | primalbound  |  gap   
  20300 | 20301 |206940 |   9.8 |  14G|-1.368145e+07 |-4.129883e+06 | 231.28%
  20400 | 20401 |207578 |   9.8 |  14G|-1.368145e+07 |-4.129883e+06 | 231.28%
  20500 | 20501 |208235 |   9.8 |  14G|-1.368145e+07 |-4.129883e+06 | 231.28%
  20600 | 20601 |208873 |   9.8 |  14G|-1.368145e+07 |-4.129883e+06 | 231.28%
  20700 | 20701 |209511 |   9.8 |  14G|-1.368141e+07 |-4.129883e+06 | 231.28%
  20800 | 20801 |210149 |   9.8 |  14G|-1.368141e+07 |-4.129883e+06 | 231.28%
  20900 | 20901 |210787 |   9.7 |  14G|-1.368139e+07 |-4.129883e+06 | 231.28%
  21000 | 21001 |211412 |   9.7 |  14G|-1.368135e+07 |-4.129883e+06 | 231.28%
  21100 | 21101 |212027 |   9.7 |  14G|-1.368134e+07 |-4.129883e+06 | 231.28%
  21200 | 21201 |212646 |   9.7 |  14G|-1.368134e+07 |-4.129883e+06 | 231.28%
  21300 | 21301 |213279 |   9.7 |  14G|-1.368129e+07 |-4.129883e+06 | 231.28%
  21400 | 21401 |213898 |   9.7 |  14G|-1.368129e+07 |-4.129883e+06 | 231.28%
  21500 | 21501 |214517 |   9.7 |  14G|-1.368129e+07 |-4.129883e+06 | 231.28%
  21600 | 21601 |215141 |   9.6 |  14G|-1.368129e+07 |-4.129883e+06 | 231.28%
  21700 | 21701 |215771 |   9.6 |  14G|-1.368129e+07 |-4.129883e+06 | 231.28%
  node  | left  |LP iter|LP it/n| mem |  dualbound   | primalbound  |  gap   
  21800 | 21801 |216395 |   9.6 |  15G|-1.368129e+07 |-4.129883e+06 | 231.28%
  21900 | 21901 |217017 |   9.6 |  16G|-1.368128e+07 |-4.129883e+06 | 231.28%
  22000 | 22001 |217638 |   9.6 |  16G|-1.368128e+07 |-4.129883e+06 | 231.28%
  22100 | 22101 |218275 |   9.6 |  16G|-1.368128e+07 |-4.129883e+06 | 231.28%
  22200 | 22201 |218907 |   9.5 |  16G|-1.368128e+07 |-4.129883e+06 | 231.28%
  22300 | 22301 |219521 |   9.5 |  16G|-1.368128e+07 |-4.129883e+06 | 231.28%
  22400 | 22401 |220142 |   9.5 |  16G|-1.368128e+07 |-4.129883e+06 | 231.28%
  22500 | 22501 |220771 |   9.5 |  16G|-1.368128e+07 |-4.129883e+06 | 231.28%
  22600 | 22601 |221403 |   9.5 |  16G|-1.368128e+07 |-4.129883e+06 | 231.28%
  22700 | 22701 |222027 |   9.5 |  16G|-1.368128e+07 |-4.129883e+06 | 231.28%
  22800 | 22801 |222669 |   9.5 |  16G|-1.368128e+07 |-4.129883e+06 | 231.28%
  22900 | 22901 |223331 |   9.4 |  16G|-1.368128e+07 |-4.129883e+06 | 231.28%
  23000 | 23001 |223972 |   9.4 |  16G|-1.368127e+07 |-4.129883e+06 | 231.28%
  23100 | 23101 |224613 |   9.4 |  16G|-1.368113e+07 |-4.129883e+06 | 231.27%
  23200 | 23201 |225227 |   9.4 |  16G|-1.368112e+07 |-4.129883e+06 | 231.27%
  node  | left  |LP iter|LP it/n| mem |  dualbound   | primalbound  |  gap   
  23300 | 23301 |225861 |   9.4 |  16G|-1.368112e+07 |-4.129883e+06 | 231.27%
  23400 | 23401 |226495 |   9.4 |  16G|-1.368111e+07 |-4.129883e+06 | 231.27%
  23500 | 23501 |227133 |   9.4 |  16G|-1.368111e+07 |-4.129883e+06 | 231.27%
  23600 | 23601 |227771 |   9.4 |  16G|-1.368110e+07 |-4.129883e+06 | 231.27%
  23700 | 23701 |228407 |   9.3 |  16G|-1.368110e+07 |-4.129883e+06 | 231.27%
  23800 | 23801 |229041 |   9.3 |  16G|-1.368109e+07 |-4.129883e+06 | 231.27%
  23900 | 23901 |229692 |   9.3 |  16G|-1.368109e+07 |-4.129883e+06 | 231.27%
  24000 | 24001 |230326 |   9.3 |  16G|-1.368109e+07 |-4.129883e+06 | 231.27%
  24100 | 24101 |230960 |   9.3 |  16G|-1.368109e+07 |-4.129883e+06 | 231.27%
  24200 | 24201 |231594 |   9.3 |  16G|-1.368105e+07 |-4.129883e+06 | 231.27%
  24300 | 24301 |232228 |   9.3 |  16G|-1.368105e+07 |-4.129883e+06 | 231.27%
  24400 | 24401 |232863 |   9.3 |  17G|-1.368103e+07 |-4.129883e+06 | 231.27%
  24500 | 24501 |233486 |   9.2 |  17G|-1.368099e+07 |-4.129883e+06 | 231.27%
  24600 | 24601 |234100 |   9.2 |  17G|-1.368099e+07 |-4.129883e+06 | 231.27%
  24700 | 24701 |234714 |   9.2 |  17G|-1.368099e+07 |-4.129883e+06 | 231.27%
  node  | left  |LP iter|LP it/n| mem |  dualbound   | primalbound  |  gap   
  24800 | 24801 |235335 |   9.2 |  17G|-1.368098e+07 |-4.129883e+06 | 231.27%
  24900 | 24901 |235960 |   9.2 |  17G|-1.368098e+07 |-4.129883e+06 | 231.27%
  25000 | 25001 |236592 |   9.2 |  17G|-1.368094e+07 |-4.129883e+06 | 231.27%
  25100 | 25101 |237223 |   9.2 |  17G|-1.368093e+07 |-4.129883e+06 | 231.27%
  25200 | 25201 |237857 |   9.2 |  17G|-1.368093e+07 |-4.129883e+06 | 231.27%
  25300 | 25301 |238469 |   9.1 |  17G|-1.368093e+07 |-4.129883e+06 | 231.27%
  25400 | 25401 |239103 |   9.1 |  17G|-1.368093e+07 |-4.129883e+06 | 231.27%
  25500 | 25501 |239726 |   9.1 |  17G|-1.368093e+07 |-4.129883e+06 | 231.27%
  25600 | 25601 |240358 |   9.1 |  17G|-1.368093e+07 |-4.129883e+06 | 231.27%
  25700 | 25701 |240983 |   9.1 |  17G|-1.368093e+07 |-4.129883e+06 | 231.27%
  25800 | 25801 |241604 |   9.1 |  17G|-1.368093e+07 |-4.129883e+06 | 231.27%
  25900 | 25901 |242220 |   9.1 |  17G|-1.368093e+07 |-4.129883e+06 | 231.27%
  26000 | 26001 |242843 |   9.1 |  17G|-1.368093e+07 |-4.129883e+06 | 231.27%
  26100 | 26101 |243468 |   9.1 |  17G|-1.368093e+07 |-4.129883e+06 | 231.27%
  26200 | 26201 |244104 |   9.0 |  19G|-1.368093e+07 |-4.129883e+06 | 231.27%
  node  | left  |LP iter|LP it/n| mem |  dualbound   | primalbound  |  gap   
  26300 | 26301 |244755 |   9.0 |  19G|-1.368092e+07 |-4.129883e+06 | 231.27%
  26400 | 26401 |245385 |   9.0 |  19G|-1.368092e+07 |-4.129883e+06 | 231.27%
  26500 | 26501 |246021 |   9.0 |  19G|-1.368092e+07 |-4.129883e+06 | 231.27%
  26600 | 26601 |246655 |   9.0 |  19G|-1.368092e+07 |-4.129883e+06 | 231.27%
  26700 | 26701 |247293 |   9.0 |  19G|-1.368092e+07 |-4.129883e+06 | 231.27%
  26800 | 26801 |247914 |   9.0 |  19G|-1.368092e+07 |-4.129883e+06 | 231.27%
  26900 | 26901 |248552 |   9.0 |  19G|-1.368092e+07 |-4.129883e+06 | 231.27%
  27000 | 27001 |249190 |   9.0 |  19G|-1.368092e+07 |-4.129883e+06 | 231.27%
  27100 | 27101 |249828 |   9.0 |  19G|-1.368091e+07 |-4.129883e+06 | 231.27%
  27200 | 27201 |250459 |   8.9 |  19G|-1.368077e+07 |-4.129883e+06 | 231.26%
  27300 | 27301 |251072 |   8.9 |  19G|-1.368076e+07 |-4.129883e+06 | 231.26%
  27400 | 27401 |251708 |   8.9 |  19G|-1.368076e+07 |-4.129883e+06 | 231.26%
  27500 | 27501 |252341 |   8.9 |  19G|-1.368075e+07 |-4.129883e+06 | 231.26%
  27600 | 27601 |252975 |   8.9 |  19G|-1.368075e+07 |-4.129883e+06 | 231.26%
  27700 | 27701 |253609 |   8.9 |  19G|-1.368074e+07 |-4.129883e+06 | 231.26%
  node  | left  |LP iter|LP it/n| mem |  dualbound   | primalbound  |  gap   
  27800 | 27801 |254250 |   8.9 |  19G|-1.368074e+07 |-4.129883e+06 | 231.26%
  27900 | 27901 |254911 |   8.9 |  19G|-1.368074e+07 |-4.129883e+06 | 231.26%
  28000 | 28001 |255551 |   8.9 |  19G|-1.368074e+07 |-4.129883e+06 | 231.26%
  28100 | 28101 |256192 |   8.9 |  19G|-1.368073e+07 |-4.129883e+06 | 231.26%
  28200 | 28201 |256832 |   8.9 |  20G|-1.368073e+07 |-4.129883e+06 | 231.26%
  28300 | 28301 |257472 |   8.8 |  20G|-1.368070e+07 |-4.129883e+06 | 231.26%
  28400 | 28401 |258112 |   8.8 |  20G|-1.368069e+07 |-4.129883e+06 | 231.26%
  28500 | 28501 |258752 |   8.8 |  20G|-1.368068e+07 |-4.129883e+06 | 231.26%
  28600 | 28601 |259380 |   8.8 |  20G|-1.368064e+07 |-4.129883e+06 | 231.26%
  28700 | 28701 |259994 |   8.8 |  20G|-1.368064e+07 |-4.129883e+06 | 231.26%
  28800 | 28801 |260606 |   8.8 |  20G|-1.368063e+07 |-4.129883e+06 | 231.26%
  28900 | 28901 |261221 |   8.8 |  20G|-1.368063e+07 |-4.129883e+06 | 231.26%
  29000 | 29001 |261836 |   8.8 |  20G|-1.368063e+07 |-4.129883e+06 | 231.26%
  29100 | 29101 |262459 |   8.8 |  20G|-1.368063e+07 |-4.129883e+06 | 231.26%
  29200 | 29201 |263074 |   8.8 |  20G|-1.368062e+07 |-4.129883e+06 | 231.26%
  node  | left  |LP iter|LP it/n| mem |  dualbound   | primalbound  |  gap   
  29300 | 29301 |263710 |   8.8 |  20G|-1.368058e+07 |-4.129883e+06 | 231.26%
  29400 | 29401 |264335 |   8.8 |  20G|-1.368058e+07 |-4.129883e+06 | 231.26%
  29500 | 29501 |264948 |   8.7 |  20G|-1.368058e+07 |-4.129883e+06 | 231.26%
  29600 | 29601 |265571 |   8.7 |  20G|-1.368058e+07 |-4.129883e+06 | 231.26%
  29700 | 29701 |266187 |   8.7 |  20G|-1.368057e+07 |-4.129883e+06 | 231.26%
  29800 | 29801 |266811 |   8.7 |  20G|-1.368057e+07 |-4.129883e+06 | 231.26%
  29900 | 29901 |267436 |   8.7 |  20G|-1.368057e+07 |-4.129883e+06 | 231.26%
  30000 | 30001 |268061 |   8.7 |  20G|-1.368057e+07 |-4.129883e+06 | 231.26%
  30100 | 30101 |268698 |   8.7 |  20G|-1.368057e+07 |-4.129883e+06 | 231.26%
  30200 | 30201 |269334 |   8.7 |  20G|-1.368057e+07 |-4.129883e+06 | 231.26%
  30300 | 30301 |269959 |   8.7 |  20G|-1.368057e+07 |-4.129883e+06 | 231.26%
  30400 | 30401 |270590 |   8.7 |  20G|-1.368057e+07 |-4.129883e+06 | 231.26%
  30500 | 30501 |271217 |   8.7 |  20G|-1.368057e+07 |-4.129883e+06 | 231.26%
  30600 | 30601 |271843 |   8.7 |  20G|-1.368057e+07 |-4.129883e+06 | 231.26%
  30700 | 30701 |272479 |   8.6 |  20G|-1.368057e+07 |-4.129883e+06 | 231.26%
  node  | left  |LP iter|LP it/n| mem |  dualbound   | primalbound  |  gap   
  30800 | 30801 |273105 |   8.6 |  20G|-1.368057e+07 |-4.129883e+06 | 231.26%
  30900 | 30901 |273727 |   8.6 |  21G|-1.368056e+07 |-4.129883e+06 | 231.26%
  31000 | 31001 |274352 |   8.6 |  21G|-1.368056e+07 |-4.129883e+06 | 231.26%
  31100 | 31101 |274990 |   8.6 |  21G|-1.368056e+07 |-4.129883e+06 | 231.26%
  31200 | 31201 |275615 |   8.6 |  21G|-1.368056e+07 |-4.129883e+06 | 231.26%
  31300 | 31301 |276250 |   8.6 |  21G|-1.368056e+07 |-4.129883e+06 | 231.26%
  31400 | 31401 |276884 |   8.6 |  21G|-1.368056e+07 |-4.129883e+06 | 231.26%
  31500 | 31501 |277520 |   8.6 |  23G|-1.368056e+07 |-4.129883e+06 | 231.26%
  31600 | 31601 |278152 |   8.6 |  23G|-1.368056e+07 |-4.129883e+06 | 231.26%
  31700 | 31701 |278788 |   8.6 |  23G|-1.368056e+07 |-4.129883e+06 | 231.26%
  31800 | 31801 |279420 |   8.6 |  23G|-1.368055e+07 |-4.129883e+06 | 231.26%
  31900 | 31901 |280054 |   8.6 |  23G|-1.368042e+07 |-4.129883e+06 | 231.25%
  32000 | 32001 |280669 |   8.6 |  23G|-1.368041e+07 |-4.129883e+06 | 231.25%
  32100 | 32101 |281304 |   8.5 |  23G|-1.368040e+07 |-4.129883e+06 | 231.25%
  32200 | 32201 |281942 |   8.5 |  23G|-1.368040e+07 |-4.129883e+06 | 231.25%
  node  | left  |LP iter|LP it/n| mem |  dualbound   | primalbound  |  gap   
  32300 | 32301 |282580 |   8.5 |  23G|-1.368040e+07 |-4.129883e+06 | 231.25%
  32400 | 32401 |283221 |   8.5 |  23G|-1.368039e+07 |-4.129883e+06 | 231.25%
  32500 | 32501 |283863 |   8.5 |  23G|-1.368039e+07 |-4.129883e+06 | 231.25%
  32600 | 32601 |284515 |   8.5 |  23G|-1.368039e+07 |-4.129883e+06 | 231.25%
  32700 | 32701 |285167 |   8.5 |  23G|-1.368038e+07 |-4.129883e+06 | 231.25%
  32800 | 32801 |285819 |   8.5 |  23G|-1.368038e+07 |-4.129883e+06 | 231.25%
  32900 | 32901 |286472 |   8.5 |  23G|-1.368038e+07 |-4.129883e+06 | 231.25%
  33000 | 33001 |287125 |   8.5 |  23G|-1.368038e+07 |-4.129883e+06 | 231.25%
  33100 | 33101 |287777 |   8.5 |  23G|-1.368034e+07 |-4.129883e+06 | 231.25%
  33200 | 33201 |288429 |   8.5 |  23G|-1.368034e+07 |-4.129883e+06 | 231.25%
  33300 | 33301 |289083 |   8.5 |  23G|-1.368032e+07 |-4.129883e+06 | 231.25%
  33400 | 33401 |289717 |   8.5 |  23G|-1.368028e+07 |-4.129883e+06 | 231.25%
  33500 | 33501 |290330 |   8.5 |  23G|-1.368028e+07 |-4.129883e+06 | 231.25%
  33600 | 33601 |290946 |   8.4 |  23G|-1.368028e+07 |-4.129883e+06 | 231.25%
  33700 | 33701 |291561 |   8.4 |  23G|-1.368028e+07 |-4.129883e+06 | 231.25%
  node  | left  |LP iter|LP it/n| mem |  dualbound   | primalbound  |  gap   
  33800 | 33801 |292174 |   8.4 |  23G|-1.368028e+07 |-4.129883e+06 | 231.25%
  33900 | 33901 |292786 |   8.4 |  24G|-1.368027e+07 |-4.129883e+06 | 231.25%
  34000 | 34001 |293407 |   8.4 |  24G|-1.368027e+07 |-4.129883e+06 | 231.25%
  34100 | 34101 |294027 |   8.4 |  24G|-1.368027e+07 |-4.129883e+06 | 231.25%
  34200 | 34201 |294653 |   8.4 |  24G|-1.368027e+07 |-4.129883e+06 | 231.25%
  34300 | 34301 |295273 |   8.4 |  24G|-1.368026e+07 |-4.129883e+06 | 231.25%
  34400 | 34401 |295915 |   8.4 |  24G|-1.368022e+07 |-4.129883e+06 | 231.25%
  34500 | 34501 |296529 |   8.4 |  24G|-1.368022e+07 |-4.129883e+06 | 231.25%
  34600 | 34601 |297143 |   8.4 |  24G|-1.368022e+07 |-4.129883e+06 | 231.25%
  34700 | 34701 |297770 |   8.4 |  24G|-1.368022e+07 |-4.129883e+06 | 231.25%
  34800 | 34801 |298403 |   8.4 |  24G|-1.368022e+07 |-4.129883e+06 | 231.25%
  34900 | 34901 |299031 |   8.4 |  24G|-1.368022e+07 |-4.129883e+06 | 231.25%
  35000 | 35001 |299658 |   8.4 |  24G|-1.368022e+07 |-4.129883e+06 | 231.25%
  35100 | 35101 |300291 |   8.4 |  24G|-1.368021e+07 |-4.129883e+06 | 231.25%
  35200 | 35201 |300919 |   8.3 |  24G|-1.368021e+07 |-4.129883e+06 | 231.25%
  node  | left  |LP iter|LP it/n| mem |  dualbound   | primalbound  |  gap   
  35300 | 35301 |301533 |   8.3 |  24G|-1.368021e+07 |-4.129883e+06 | 231.25%
  35400 | 35401 |302166 |   8.3 |  24G|-1.368021e+07 |-4.129883e+06 | 231.25%
  35500 | 35501 |302808 |   8.3 |  24G|-1.368021e+07 |-4.129883e+06 | 231.25%
  35600 | 35601 |303448 |   8.3 |  24G|-1.368021e+07 |-4.129883e+06 | 231.25%
  35700 | 35701 |304068 |   8.3 |  24G|-1.368021e+07 |-4.129883e+06 | 231.25%
  35800 | 35801 |304698 |   8.3 |  24G|-1.368021e+07 |-4.129883e+06 | 231.25%
  35900 | 35901 |305339 |   8.3 |  24G|-1.368021e+07 |-4.129883e+06 | 231.25%
  36000 | 36001 |305974 |   8.3 |  24G|-1.368021e+07 |-4.129883e+06 | 231.25%
  36100 | 36101 |306602 |   8.3 |  24G|-1.368021e+07 |-4.129883e+06 | 231.25%
  36200 | 36201 |307223 |   8.3 |  24G|-1.368021e+07 |-4.129883e+06 | 231.25%
  36300 | 36301 |307854 |   8.3 |  24G|-1.368021e+07 |-4.129883e+06 | 231.25%
  36400 | 36401 |308481 |   8.3 |  24G|-1.368021e+07 |-4.129883e+06 | 231.25%
  36500 | 36501 |309109 |   8.3 |  24G|-1.368021e+07 |-4.129883e+06 | 231.25%
  36600 | 36601 |309750 |   8.3 |  25G|-1.368021e+07 |-4.129883e+06 | 231.25%
  36700 | 36701 |310387 |   8.3 |  25G|-1.368021e+07 |-4.129883e+06 | 231.25%
  node  | left  |LP iter|LP it/n| mem |  dualbound   | primalbound  |  gap   
  36800 | 36801 |311013 |   8.3 |  25G|-1.368020e+07 |-4.129883e+06 | 231.25%
  36900 | 36901 |311649 |   8.3 |  25G|-1.368020e+07 |-4.129883e+06 | 231.25%
  37000 | 37001 |312290 |   8.3 |  25G|-1.368020e+07 |-4.129883e+06 | 231.25%
  37100 | 37101 |312931 |   8.2 |  25G|-1.368020e+07 |-4.129883e+06 | 231.25%
  37200 | 37201 |313568 |   8.2 |  25G|-1.368020e+07 |-4.129883e+06 | 231.25%
  37300 | 37301 |314208 |   8.2 |  25G|-1.368007e+07 |-4.129883e+06 | 231.25%
  37400 | 37401 |314823 |   8.2 |  25G|-1.368006e+07 |-4.129883e+06 | 231.25%
  37500 | 37501 |315443 |   8.2 |  25G|-1.368005e+07 |-4.129883e+06 | 231.25%
  37600 | 37601 |316085 |   8.2 |  25G|-1.368005e+07 |-4.129883e+06 | 231.25%
  37700 | 37701 |316724 |   8.2 |  27G|-1.368005e+07 |-4.129883e+06 | 231.25%
  37800 | 37801 |317370 |   8.2 |  27G|-1.368004e+07 |-4.129883e+06 | 231.25%
  37900 | 37901 |318010 |   8.2 |  27G|-1.368004e+07 |-4.129883e+06 | 231.25%
  38000 | 38001 |318652 |   8.2 |  27G|-1.368004e+07 |-4.129883e+06 | 231.25%
  38100 | 38101 |319299 |   8.2 |  27G|-1.368003e+07 |-4.129883e+06 | 231.25%
  38200 | 38201 |319941 |   8.2 |  27G|-1.368003e+07 |-4.129883e+06 | 231.25%
  node  | left  |LP iter|LP it/n| mem |  dualbound   | primalbound  |  gap   
  38300 | 38301 |320583 |   8.2 |  27G|-1.368003e+07 |-4.129883e+06 | 231.25%
  38400 | 38401 |321226 |   8.2 |  27G|-1.368003e+07 |-4.129883e+06 | 231.24%
  38500 | 38501 |321868 |   8.2 |  27G|-1.368003e+07 |-4.129883e+06 | 231.24%
  38600 | 38601 |322492 |   8.2 |  28G|-1.367999e+07 |-4.129883e+06 | 231.24%
  38700 | 38701 |323132 |   8.2 |  28G|-1.367999e+07 |-4.129883e+06 | 231.24%
  38800 | 38801 |323777 |   8.2 |  28G|-1.367998e+07 |-4.129883e+06 | 231.24%
  38900 | 38901 |324419 |   8.2 |  28G|-1.367993e+07 |-4.129883e+06 | 231.24%
  39000 | 39001 |325033 |   8.2 |  28G|-1.367993e+07 |-4.129883e+06 | 231.24%
  39100 | 39101 |325648 |   8.1 |  28G|-1.367992e+07 |-4.129883e+06 | 231.24%
  39200 | 39201 |326260 |   8.1 |  28G|-1.367992e+07 |-4.129883e+06 | 231.24%
  39300 | 39301 |326872 |   8.1 |  28G|-1.367992e+07 |-4.129883e+06 | 231.24%
  39400 | 39401 |327488 |   8.1 |  28G|-1.367992e+07 |-4.129883e+06 | 231.24%
  39500 | 39501 |328102 |   8.1 |  28G|-1.367992e+07 |-4.129883e+06 | 231.24%
  39600 | 39601 |328722 |   8.1 |  28G|-1.367992e+07 |-4.129883e+06 | 231.24%
  39700 | 39701 |329343 |   8.1 |  28G|-1.367991e+07 |-4.129883e+06 | 231.24%
  node  | left  |LP iter|LP it/n| mem |  dualbound   | primalbound  |  gap   
  39800 | 39801 |329957 |   8.1 |  28G|-1.367991e+07 |-4.129883e+06 | 231.24%
  39900 | 39901 |330588 |   8.1 |  28G|-1.367991e+07 |-4.129883e+06 | 231.24%
  40000 | 40001 |331214 |   8.1 |  28G|-1.367991e+07 |-4.129883e+06 | 231.24%
  40100 | 40101 |331833 |   8.1 |  28G|-1.367991e+07 |-4.129883e+06 | 231.24%
  40200 | 40201 |332462 |   8.1 |  28G|-1.367991e+07 |-4.129883e+06 | 231.24%
  40300 | 40301 |333116 |   8.1 |  28G|-1.367987e+07 |-4.129883e+06 | 231.24%
  40400 | 40401 |333732 |   8.1 |  28G|-1.367986e+07 |-4.129883e+06 | 231.24%
  40500 | 40501 |334359 |   8.1 |  28G|-1.367986e+07 |-4.129883e+06 | 231.24%
  40600 | 40601 |334993 |   8.1 |  28G|-1.367986e+07 |-4.129883e+06 | 231.24%
  40700 | 40701 |335607 |   8.1 |  28G|-1.367986e+07 |-4.129883e+06 | 231.24%
  40800 | 40801 |336249 |   8.1 |  28G|-1.367986e+07 |-4.129883e+06 | 231.24%
  40900 | 40901 |336861 |   8.1 |  28G|-1.367986e+07 |-4.129883e+06 | 231.24%
  41000 | 41001 |337503 |   8.1 |  28G|-1.367986e+07 |-4.129883e+06 | 231.24%
  41100 | 41101 |338117 |   8.1 |  28G|-1.367986e+07 |-4.129883e+06 | 231.24%
  41200 | 41201 |338743 |   8.1 |  28G|-1.367986e+07 |-4.129883e+06 | 231.24%
